------------------------------------------------------------------------------
                        * O   R   C   A *
------------------------------------------------------------------------------

           Program Version 5.0.4 - RELEASE  -

------------------------------------------------------------------------------
                           INPUT FILE
------------------------------------------------------------------------------
! B3LYP def2-SVP TD-DFT
* xyz 0 1
C   0.000000   1.397000   0.000000
C   1.210000   0.698500   0.000000
C   1.210000  -0.698500   0.000000
C   0.000000  -1.397000   0.000000
C  -1.210000  -0.698500   0.000000
C  -1.210000   0.698500   0.000000
H   0.000000   2.481000   0.000000
H   2.148000   1.240500   0.000000
H   2.148000  -1.240500   0.000000
H   0.000000  -2.481000   0.000000
H  -2.148000  -1.240500   0.000000
H  -2.148000   1.240500   0.000000
*
------------------------------------------------------------------------------

FINAL SINGLE POINT ENERGY      -232.245891230000

------------------------------------------------------------------------------
         ABSORPTION SPECTRUM VIA TRANSITION ELECTRIC DIPOLE MOMENTS
------------------------------------------------------------------------------
   State   Energy (cm-1)  Wavelength (nm)  fosc
   --------------------------------------------
       1      39118.2          255.6       0.000000000
       2      47945.6          208.6       0.098450000
       3      55773.0          179.3       0.852400000

****ORCA TERMINATED NORMALLY****
