------------------------------------------------------------------------------
                        * O   R   C   A *
------------------------------------------------------------------------------

           Program Version 5.0.4 - RELEASE  -

------------------------------------------------------------------------------
                           INPUT FILE
------------------------------------------------------------------------------
! B3LYP def2-SVP Opt Freq
* xyz 0 1
O   0.000000   0.000000   0.117200
H   0.000000   0.757000  -0.468800
H   0.000000  -0.757000  -0.468800
*
------------------------------------------------------------------------------

                      CARTESIAN COORDINATES (ANGSTROEM)
  --------------------------------------------------------------------
  O      0.000000    0.000000    0.117200
  H      0.000000    0.757000   -0.468800
  H      0.000000   -0.757000   -0.468800
  --------------------------------------------------------------------

                       ORBITAL ENERGIES
  --------------------------------------------------------------------
  NO   OCC          E(Hartree)        E(eV)
   0   2.0000      -18.752300      -510.276
   1   2.0000       -0.912400       -24.828
   2   2.0000       -0.485200       -13.203
   3   2.0000       -0.342100        -9.309
   4   2.0000       -0.261500        -7.116
   5   0.0000        0.048200         1.312
   6   0.0000        0.124500         3.388
   7   0.0000        0.485200        13.203
  --------------------------------------------------------------------

Total Energy       :        -76.41893254 Eh
FINAL SINGLE POINT ENERGY       -76.418932542150

------------------------------------------------------------------------------
                           DIPOLE MOMENT
------------------------------------------------------------------------------
Magnitude (Debye)      :        1.8542
------------------------------------------------------------------------------

------------------------------------------------------------------------------
                        VIBRATIONAL FREQUENCIES
------------------------------------------------------------------------------
   0:         0.00 cm**-1
   1:         0.00 cm**-1
   2:         0.00 cm**-1
   3:         0.00 cm**-1
   4:         0.00 cm**-1
   5:         0.00 cm**-1
   6:      1640.50 cm**-1
   7:      3810.20 cm**-1
   8:      3920.80 cm**-1

------------------------------------------------------------------------------
                          THERMOCHEMISTRY AT 298.15 K
------------------------------------------------------------------------------
Zero point energy                   ...      0.02135000 Eh
Total thermal energy                ...      0.02418000 Eh
Total Enthalpy                      ...    -76.39380800 Eh
Final entropy term                  ...      0.02145000 Eh
Total entropy correction            ...     -0.02145000 Eh
Final Gibbs free energy             ...    -76.41525800 Eh

*** OPTIMIZATION RUN DONE ***
HURRAY - THE OPTIMIZATION HAS CONVERGED

****ORCA TERMINATED NORMALLY****
